p cnf 7230 16
-4416 -5048 5371 0
4416 -5372 0
5377 5378 0
5014 -5378 0
-5014 -5377 0
5375 5376 0
5012 -5376 0
-5012 -5375 0
5373 5374 0
5010 -5374 0
-5010 -5373 0
-5371 5372 0
5048 -5372 0
5016 -5380 0
-5369 5370 0
5369 -5370 0
